assets/logs/12_10x10_clingo/12_10x10_clingo.solution.log

-----------------------------------------
| 43| 81| 94| 73| 39|  0| 62| 12| 91| 16|
-----------------------------------------
| 92| 35| 41| 83| 56| 87| 93| 18| 60| 10|
-----------------------------------------
| 79| 45| 75| 37| 71| 64| 58| 89| 14| 20|
-----------------------------------------
| 33| 90| 69| 70| 85| 54|  1| 74|  8|  1|
-----------------------------------------
| 47| 77|  1|  1| 34| 72| 66| 40| 22|  0|
-----------------------------------------
| 88| 31| 49| 67| 68| 38| 52| 19| 76|  6|
-----------------------------------------
|  3| 65| 86| 36| 23| 32| 42| 24| 50| 17|
-----------------------------------------
| 29| 59| 25| 51|  9| 82| 21| 15|  4| 78|
-----------------------------------------
| 63|  5| 55| 84| 30| 44| 11| 80| 26| 48|
-----------------------------------------
| 57| 27| 61|  7| 53|  1| 28| 46| 13|  2|
-----------------------------------------

| n = 10 | k = 5 | coverage = 98, 98.0%
 Time 300.001
 Name 12_10x10_clingo

