assets/logs/12_10x10_clingo/12_10x10_clingo.log
clingo version 5.4.0
Reading from ...s/logs/12_10x10_clingo/knights_tour.lp ...
Solving...
Answer: 1
occ(1,5,4) occ(1,4,10) occ(1,4,7) occ(1,10,6) occ(1,5,3) occ(2,10,10) occ(3,7,1) coverage(6)
Optimization: -6
Answer: 2
occ(1,5,4) occ(1,4,10) occ(1,4,7) occ(1,10,6) occ(1,5,3) occ(2,10,10) occ(3,7,1) coverage(73) occ(13,1,6) occ(19,1,3) occ(23,1,7) occ(33,1,10) occ(53,1,8) occ(56,1,2) occ(57,1,4) occ(74,1,9) occ(15,2,4) occ(21,2,5) occ(25,2,9) occ(31,2,8) occ(51,2,10) occ(52,2,3) occ(55,2,6) occ(59,2,2) occ(60,2,1) occ(76,2,7) occ(11,3,7) occ(17,3,2) occ(29,3,6) occ(35,3,9) occ(54,3,1) occ(58,3,3) occ(72,3,8) occ(9,4,5) occ(27,4,8) occ(49,4,9) occ(50,4,4) occ(61,4,1) occ(62,4,2) occ(78,4,6) occ(5,5,2) occ(24,5,8) occ(37,5,10) occ(48,5,6) occ(66,5,5) occ(70,5,7) occ(94,5,9) occ(7,6,4) occ(22,6,6) occ(40,6,1) occ(47,6,10) occ(63,6,2) occ(64,6,3) occ(80,6,5) occ(20,7,4) occ(26,7,7) occ(39,7,9) occ(42,7,3) occ(46,7,5) occ(68,7,6) occ(88,7,10) occ(92,7,8) occ(6,8,10) occ(14,8,4) occ(32,8,5) occ(38,8,2) occ(45,8,9) occ(65,8,1) occ(69,8,3) occ(82,8,6) occ(86,8,8) occ(4,9,8) occ(10,9,7) occ(18,9,5) occ(28,9,6) occ(34,9,3) occ(41,9,10) occ(44,9,4) occ(71,9,1) occ(90,9,9) occ(8,10,9) occ(12,10,5) occ(16,10,3) occ(30,10,4) occ(36,10,1) occ(43,10,8) occ(67,10,2) occ(84,10,7)
Optimization: -73
Answer: 3
occ(1,5,4) occ(1,4,10) occ(1,4,7) occ(1,10,6) occ(1,5,3) occ(2,10,10) occ(3,7,1) coverage(75) occ(13,1,6) occ(19,1,3) occ(23,1,7) occ(33,1,10) occ(53,1,8) occ(56,1,2) occ(57,1,4) occ(74,1,9) occ(15,2,4) occ(21,2,5) occ(25,2,9) occ(31,2,8) occ(51,2,10) occ(52,2,3) occ(55,2,6) occ(59,2,2) occ(60,2,1) occ(76,2,7) occ(11,3,7) occ(17,3,2) occ(29,3,6) occ(35,3,9) occ(54,3,1) occ(58,3,3) occ(72,3,8) occ(9,4,5) occ(27,4,8) occ(49,4,9) occ(50,4,4) occ(61,4,1) occ(62,4,2) occ(78,4,6) occ(5,5,2) occ(24,5,8) occ(37,5,10) occ(48,5,6) occ(66,5,5) occ(70,5,7) occ(94,5,9) occ(7,6,4) occ(22,6,6) occ(40,6,1) occ(47,6,10) occ(63,6,2) occ(64,6,3) occ(80,6,5) occ(20,7,4) occ(26,7,7) occ(39,7,9) occ(42,7,3) occ(46,7,5) occ(68,7,6) occ(73,7,2) occ(88,7,10) occ(92,7,8) occ(6,8,10) occ(14,8,4) occ(32,8,5) occ(38,8,2) occ(45,8,9) occ(65,8,1) occ(69,8,3) occ(82,8,6) occ(86,8,8) occ(4,9,8) occ(10,9,7) occ(18,9,5) occ(28,9,6) occ(34,9,3) occ(41,9,10) occ(44,9,4) occ(71,9,1) occ(90,9,9) occ(8,10,9) occ(12,10,5) occ(16,10,3) occ(30,10,4) occ(36,10,1) occ(43,10,8) occ(67,10,2) occ(84,10,7)
Optimization: -75
Answer: 4
occ(1,5,4) occ(1,4,10) occ(1,4,7) occ(1,10,6) occ(1,5,3) occ(2,10,10) occ(3,7,1) coverage(77) occ(13,1,6) occ(19,1,3) occ(23,1,7) occ(33,1,10) occ(53,1,8) occ(56,1,2) occ(57,1,4) occ(74,1,9) occ(15,2,4) occ(21,2,5) occ(25,2,9) occ(31,2,8) occ(51,2,10) occ(52,2,3) occ(55,2,6) occ(59,2,2) occ(60,2,1) occ(76,2,7) occ(11,3,7) occ(17,3,2) occ(29,3,6) occ(35,3,9) occ(54,3,1) occ(58,3,3) occ(72,3,8) occ(9,4,5) occ(27,4,8) occ(49,4,9) occ(50,4,4) occ(61,4,1) occ(62,4,2) occ(78,4,6) occ(5,5,2) occ(24,5,8) occ(37,5,10) occ(48,5,6) occ(66,5,5) occ(70,5,7) occ(75,5,1) occ(94,5,9) occ(7,6,4) occ(22,6,6) occ(40,6,1) occ(47,6,10) occ(63,6,2) occ(64,6,3) occ(80,6,5) occ(20,7,4) occ(26,7,7) occ(39,7,9) occ(42,7,3) occ(46,7,5) occ(68,7,6) occ(73,7,2) occ(88,7,10) occ(92,7,8) occ(6,8,10) occ(14,8,4) occ(32,8,5) occ(38,8,2) occ(45,8,9) occ(65,8,1) occ(69,8,3) occ(82,8,6) occ(86,8,8) occ(4,9,8) occ(10,9,7) occ(18,9,5) occ(28,9,6) occ(34,9,3) occ(41,9,10) occ(44,9,4) occ(71,9,1) occ(90,9,9) occ(8,10,9) occ(12,10,5) occ(16,10,3) occ(30,10,4) occ(36,10,1) occ(43,10,8) occ(67,10,2) occ(84,10,7)
Optimization: -77
Answer: 5
occ(1,5,4) occ(1,4,10) occ(1,4,7) occ(1,10,6) occ(1,5,3) occ(2,10,10) occ(3,7,1) coverage(78) occ(14,1,9) occ(19,1,7) occ(25,1,6) occ(29,1,2) occ(35,1,5) occ(53,1,8) occ(57,1,4) occ(63,1,3) occ(17,2,9) occ(18,2,8) occ(21,2,5) occ(27,2,4) occ(33,2,3) occ(37,2,7) occ(51,2,10) occ(55,2,6) occ(59,2,2) occ(12,3,8) occ(16,3,10) occ(20,3,6) occ(23,3,7) occ(31,3,1) occ(39,3,9) occ(58,3,3) occ(61,3,4) occ(65,3,2) occ(15,4,8) occ(22,4,4) occ(49,4,9) occ(56,4,5) occ(60,4,1) occ(81,4,3) occ(5,5,2) occ(10,5,7) occ(13,5,6) occ(41,5,10) occ(45,5,8) occ(67,5,1) occ(83,5,5) occ(95,5,9) occ(8,6,9) occ(24,6,5) occ(28,6,7) occ(47,6,10) occ(50,6,8) occ(54,6,6) occ(62,6,2) occ(69,6,3) occ(79,6,4) occ(7,7,3) occ(11,7,7) occ(30,7,5) occ(43,7,9) occ(48,7,6) occ(77,7,2) occ(85,7,4) occ(93,7,10) occ(6,8,10) occ(9,8,5) occ(26,8,6) occ(34,8,2) occ(46,8,8) occ(52,8,7) occ(64,8,1) occ(68,8,3) occ(71,8,4) occ(4,9,8) occ(32,9,4) occ(38,9,3) occ(42,9,7) occ(72,9,6) occ(75,9,1) occ(76,9,10) occ(87,9,5) occ(91,9,9) occ(36,10,1) occ(40,10,5) occ(44,10,9) occ(66,10,2) occ(70,10,4) occ(73,10,3) occ(74,10,8) occ(89,10,7)
Optimization: -78
Answer: 6
occ(1,5,4) occ(1,4,10) occ(1,4,7) occ(1,10,6) occ(1,5,3) occ(2,10,10) occ(3,7,1) coverage(79) occ(14,1,9) occ(19,1,7) occ(25,1,6) occ(29,1,2) occ(35,1,5) occ(53,1,8) occ(57,1,4) occ(63,1,3) occ(17,2,9) occ(18,2,8) occ(21,2,5) occ(27,2,4) occ(33,2,3) occ(37,2,7) occ(51,2,10) occ(55,2,6) occ(59,2,2) occ(12,3,8) occ(16,3,10) occ(20,3,6) occ(23,3,7) occ(31,3,1) occ(39,3,9) occ(58,3,3) occ(61,3,4) occ(65,3,2) occ(15,4,8) occ(22,4,4) occ(49,4,9) occ(56,4,5) occ(60,4,1) occ(5,5,2) occ(10,5,7) occ(13,5,6) occ(41,5,8) occ(67,5,1) occ(8,6,9) occ(24,6,5) occ(28,6,7) occ(43,6,6) occ(47,6,10) occ(50,6,8) occ(54,6,4) occ(62,6,2) occ(69,6,3) occ(7,7,3) occ(11,7,7) occ(30,7,5) occ(45,7,8) occ(48,7,10) occ(52,7,6) occ(77,7,2) occ(78,7,9) occ(6,8,10) occ(9,8,5) occ(26,8,6) occ(34,8,2) occ(46,8,8) occ(64,8,1) occ(68,8,3) occ(71,8,4) occ(4,9,8) occ(32,9,4) occ(38,9,3) occ(42,9,7) occ(72,9,6) occ(75,9,1) occ(76,9,10) occ(36,10,1) occ(40,10,5) occ(44,10,9) occ(66,10,2) occ(70,10,4) occ(73,10,3) occ(74,10,8)
Optimization: -79
Answer: 7
occ(1,5,4) occ(1,4,10) occ(1,4,7) occ(1,10,6) occ(1,5,3) occ(2,10,10) occ(3,7,1) coverage(80) occ(14,1,9) occ(19,1,7) occ(25,1,6) occ(29,1,2) occ(35,1,5) occ(53,1,8) occ(57,1,4) occ(63,1,3) occ(17,2,9) occ(18,2,8) occ(21,2,5) occ(27,2,4) occ(33,2,3) occ(37,2,7) occ(51,2,10) occ(55,2,6) occ(59,2,2) occ(12,3,8) occ(16,3,10) occ(20,3,6) occ(23,3,7) occ(31,3,1) occ(39,3,9) occ(61,3,4) occ(65,3,2) occ(15,4,8) occ(22,4,4) occ(49,4,9) occ(5,5,2) occ(10,5,7) occ(13,5,6) occ(41,5,8) occ(67,5,1) occ(8,6,9) occ(24,6,5) occ(28,6,7) occ(43,6,6) occ(47,6,10) occ(50,6,8) occ(62,6,2) occ(69,6,3) occ(79,6,4) occ(7,7,3) occ(11,7,7) occ(30,7,5) occ(45,7,8) occ(48,7,10) occ(60,7,4) occ(77,7,2) occ(78,7,9) occ(6,8,10) occ(9,8,5) occ(26,8,6) occ(34,8,2) occ(46,8,8) occ(52,8,7) occ(64,8,1) occ(68,8,3) occ(71,8,4) occ(4,9,8) occ(32,9,4) occ(38,9,3) occ(42,9,7) occ(54,9,9) occ(58,9,5) occ(72,9,6) occ(75,9,1) occ(76,9,10) occ(36,10,1) occ(40,10,5) occ(44,10,9) occ(56,10,7) occ(66,10,2) occ(70,10,4) occ(73,10,3) occ(74,10,8)
Optimization: -80
Answer: 8
occ(1,5,4) occ(1,4,10) occ(1,4,7) occ(1,10,6) occ(1,5,3) occ(2,10,10) occ(3,7,1) coverage(81) occ(14,1,9) occ(19,1,7) occ(25,1,6) occ(29,1,2) occ(35,1,5) occ(53,1,8) occ(57,1,4) occ(63,1,3) occ(17,2,9) occ(18,2,8) occ(21,2,5) occ(27,2,4) occ(33,2,3) occ(37,2,7) occ(51,2,10) occ(55,2,6) occ(59,2,2) occ(12,3,8) occ(16,3,10) occ(20,3,6) occ(23,3,7) occ(31,3,1) occ(39,3,9) occ(61,3,4) occ(65,3,2) occ(15,4,8) occ(22,4,4) occ(49,4,9) occ(5,5,2) occ(10,5,7) occ(13,5,6) occ(41,5,8) occ(67,5,1) occ(80,5,10) occ(8,6,9) occ(24,6,5) occ(28,6,7) occ(43,6,6) occ(47,6,10) occ(50,6,8) occ(62,6,2) occ(69,6,3) occ(79,6,4) occ(7,7,3) occ(11,7,7) occ(30,7,5) occ(45,7,8) occ(48,7,10) occ(60,7,4) occ(77,7,2) occ(78,7,9) occ(6,8,10) occ(9,8,5) occ(26,8,6) occ(34,8,2) occ(46,8,8) occ(52,8,7) occ(64,8,1) occ(68,8,3) occ(71,8,4) occ(4,9,8) occ(32,9,4) occ(38,9,3) occ(42,9,7) occ(54,9,9) occ(58,9,5) occ(72,9,6) occ(75,9,1) occ(76,9,10) occ(36,10,1) occ(40,10,5) occ(44,10,9) occ(56,10,7) occ(66,10,2) occ(70,10,4) occ(73,10,3) occ(74,10,8)
Optimization: -81
Answer: 9
occ(1,5,4) occ(1,4,10) occ(1,4,7) occ(1,10,6) occ(1,5,3) occ(2,10,10) occ(3,7,1) coverage(82) occ(14,1,9) occ(19,1,7) occ(25,1,6) occ(29,1,2) occ(35,1,5) occ(53,1,8) occ(57,1,4) occ(63,1,3) occ(17,2,9) occ(18,2,8) occ(21,2,5) occ(27,2,4) occ(33,2,3) occ(37,2,7) occ(51,2,10) occ(55,2,6) occ(59,2,2) occ(12,3,8) occ(16,3,10) occ(20,3,6) occ(23,3,7) occ(31,3,1) occ(39,3,9) occ(61,3,4) occ(65,3,2) occ(15,4,8) occ(22,4,4) occ(49,4,9) occ(10,5,7) occ(13,5,6) occ(41,5,8) occ(67,5,1) occ(80,5,10) occ(81,5,2) occ(8,6,9) occ(24,6,5) occ(28,6,7) occ(43,6,6) occ(47,6,10) occ(50,6,8) occ(62,6,2) occ(69,6,3) occ(79,6,4) occ(7,7,3) occ(11,7,7) occ(30,7,5) occ(45,7,8) occ(48,7,10) occ(60,7,4) occ(77,7,2) occ(78,7,9) occ(6,8,10) occ(9,8,5) occ(26,8,6) occ(34,8,2) occ(46,8,8) occ(52,8,7) occ(64,8,1) occ(68,8,3) occ(71,8,4) occ(4,9,8) occ(5,9,2) occ(32,9,4) occ(38,9,3) occ(42,9,7) occ(54,9,9) occ(58,9,5) occ(72,9,6) occ(75,9,1) occ(76,9,10) occ(36,10,1) occ(40,10,5) occ(44,10,9) occ(56,10,7) occ(66,10,2) occ(70,10,4) occ(73,10,3) occ(74,10,8)
Optimization: -82
Answer: 10
occ(1,5,4) occ(1,4,10) occ(1,4,7) occ(1,10,6) occ(1,5,3) occ(2,10,10) occ(3,7,1) coverage(83) occ(16,1,4) occ(19,1,7) occ(29,1,2) occ(35,1,5) occ(53,1,6) occ(63,1,3) occ(14,2,6) occ(21,2,5) occ(27,2,4) occ(33,2,3) occ(37,2,7) occ(51,2,8) occ(59,2,2) occ(65,2,1) occ(12,3,8) occ(17,3,6) occ(18,3,3) occ(23,3,7) occ(31,3,1) occ(39,3,9) occ(55,3,5) occ(61,3,4) occ(81,3,2) occ(22,4,4) occ(25,4,5) occ(49,4,9) occ(57,4,3) occ(67,4,2) occ(82,4,8) occ(10,5,7) occ(15,5,5) occ(20,5,2) occ(41,5,8) occ(79,5,1) occ(80,5,10) occ(8,6,9) occ(11,6,4) occ(24,6,5) occ(28,6,7) occ(43,6,6) occ(47,6,10) occ(50,6,8) occ(62,6,2) occ(69,6,3) occ(7,7,3) occ(13,7,6) occ(30,7,5) occ(45,7,8) occ(48,7,10) occ(60,7,4) occ(77,7,2) occ(78,7,9) occ(6,8,10) occ(9,8,5) occ(26,8,6) occ(34,8,2) occ(46,8,8) occ(52,8,7) occ(64,8,1) occ(68,8,3) occ(71,8,4) occ(4,9,8) occ(5,9,2) occ(32,9,4) occ(38,9,3) occ(42,9,7) occ(54,9,9) occ(58,9,5) occ(72,9,6) occ(75,9,1) occ(76,9,10) occ(36,10,1) occ(40,10,5) occ(44,10,9) occ(56,10,7) occ(66,10,2) occ(70,10,4) occ(73,10,3) occ(74,10,8)
Optimization: -83
Answer: 11
occ(1,5,4) occ(1,4,10) occ(1,4,7) occ(1,10,6) occ(1,5,3) occ(2,10,10) occ(3,7,1) coverage(84) occ(16,1,4) occ(19,1,7) occ(29,1,2) occ(35,1,5) occ(53,1,6) occ(63,1,3) occ(83,1,1) occ(14,2,6) occ(21,2,5) occ(27,2,4) occ(33,2,3) occ(37,2,7) occ(51,2,8) occ(59,2,2) occ(65,2,1) occ(12,3,8) occ(17,3,6) occ(18,3,3) occ(23,3,7) occ(31,3,1) occ(39,3,9) occ(55,3,5) occ(61,3,4) occ(81,3,2) occ(22,4,4) occ(25,4,5) occ(49,4,9) occ(57,4,3) occ(67,4,2) occ(82,4,8) occ(10,5,7) occ(15,5,5) occ(20,5,2) occ(41,5,8) occ(79,5,1) occ(80,5,10) occ(8,6,9) occ(11,6,4) occ(24,6,5) occ(28,6,7) occ(43,6,6) occ(47,6,10) occ(50,6,8) occ(62,6,2) occ(69,6,3) occ(7,7,3) occ(13,7,6) occ(30,7,5) occ(45,7,8) occ(48,7,10) occ(60,7,4) occ(77,7,2) occ(78,7,9) occ(6,8,10) occ(9,8,5) occ(26,8,6) occ(34,8,2) occ(46,8,8) occ(52,8,7) occ(64,8,1) occ(68,8,3) occ(71,8,4) occ(4,9,8) occ(5,9,2) occ(32,9,4) occ(38,9,3) occ(42,9,7) occ(54,9,9) occ(58,9,5) occ(72,9,6) occ(75,9,1) occ(76,9,10) occ(36,10,1) occ(40,10,5) occ(44,10,9) occ(56,10,7) occ(66,10,2) occ(70,10,4) occ(73,10,3) occ(74,10,8)
Optimization: -84
Answer: 12
occ(1,5,4) occ(1,4,10) occ(1,4,7) occ(1,10,6) occ(1,5,3) occ(2,10,10) occ(3,7,1) coverage(85) occ(16,1,4) occ(19,1,7) occ(29,1,2) occ(35,1,5) occ(53,1,6) occ(63,1,3) occ(83,1,1) occ(14,2,6) occ(21,2,5) occ(27,2,4) occ(33,2,3) occ(37,2,7) occ(51,2,8) occ(59,2,2) occ(65,2,1) occ(12,3,8) occ(17,3,6) occ(18,3,3) occ(23,3,7) occ(31,3,1) occ(39,3,9) occ(55,3,5) occ(61,3,4) occ(81,3,2) occ(84,3,10) occ(22,4,4) occ(25,4,5) occ(49,4,9) occ(57,4,3) occ(67,4,2) occ(82,4,8) occ(10,5,7) occ(15,5,5) occ(20,5,2) occ(41,5,8) occ(79,5,1) occ(80,5,10) occ(8,6,9) occ(11,6,4) occ(24,6,5) occ(28,6,7) occ(43,6,6) occ(47,6,10) occ(50,6,8) occ(62,6,2) occ(69,6,3) occ(7,7,3) occ(13,7,6) occ(30,7,5) occ(45,7,8) occ(48,7,10) occ(60,7,4) occ(77,7,2) occ(78,7,9) occ(6,8,10) occ(9,8,5) occ(26,8,6) occ(34,8,2) occ(46,8,8) occ(52,8,7) occ(64,8,1) occ(68,8,3) occ(71,8,4) occ(4,9,8) occ(5,9,2) occ(32,9,4) occ(38,9,3) occ(42,9,7) occ(54,9,9) occ(58,9,5) occ(72,9,6) occ(75,9,1) occ(76,9,10) occ(36,10,1) occ(40,10,5) occ(44,10,9) occ(56,10,7) occ(66,10,2) occ(70,10,4) occ(73,10,3) occ(74,10,8)
Optimization: -85
Answer: 13
occ(1,5,4) occ(1,4,10) occ(1,4,7) occ(1,10,6) occ(1,5,3) occ(2,10,10) occ(3,7,1) coverage(86) occ(16,1,4) occ(19,1,7) occ(29,1,2) occ(35,1,5) occ(53,1,6) occ(63,1,3) occ(14,2,6) occ(21,2,5) occ(27,2,4) occ(33,2,3) occ(37,2,7) occ(51,2,8) occ(59,2,2) occ(65,2,1) occ(12,3,8) occ(17,3,6) occ(18,3,3) occ(23,3,7) occ(31,3,1) occ(39,3,9) occ(55,3,5) occ(61,3,4) occ(81,3,2) occ(25,4,5) occ(34,4,8) occ(49,4,9) occ(57,4,3) occ(67,4,2) occ(83,4,4) occ(10,5,7) occ(15,5,5) occ(20,5,2) occ(32,5,10) occ(36,5,6) occ(41,5,8) occ(79,5,1) occ(8,6,9) occ(11,6,4) occ(24,6,5) occ(28,6,7) occ(43,6,6) occ(47,6,10) occ(50,6,8) occ(62,6,2) occ(69,6,1) occ(85,6,3) occ(13,7,6) occ(22,7,3) occ(30,7,9) occ(38,7,7) occ(45,7,8) occ(48,7,10) occ(60,7,4) occ(70,7,5) occ(77,7,2) occ(6,8,10) occ(9,8,3) occ(26,8,6) occ(40,8,9) occ(46,8,8) occ(52,8,7) occ(64,8,1) occ(71,8,2) occ(74,8,4) occ(80,8,5) occ(4,9,8) occ(5,9,2) occ(44,9,10) occ(54,9,9) occ(58,9,5) occ(68,9,4) occ(72,9,6) occ(75,9,1) occ(78,9,7) occ(82,9,3) occ(7,10,4) occ(42,10,8) occ(56,10,7) occ(66,10,2) occ(73,10,3) occ(76,10,5) occ(84,10,1)
Optimization: -86
Answer: 14
occ(1,5,4) occ(1,4,10) occ(1,4,7) occ(1,10,6) occ(1,5,3) occ(2,10,10) occ(3,7,1) coverage(87) occ(19,1,7) occ(20,1,8) occ(29,1,2) occ(35,1,5) occ(53,1,6) occ(61,1,4) occ(18,2,6) occ(21,2,5) occ(22,2,10) occ(27,2,4) occ(33,2,3) occ(37,2,7) occ(51,2,8) occ(59,2,2) occ(65,2,1) occ(16,3,4) occ(17,3,6) occ(23,3,7) occ(24,3,8) occ(31,3,1) occ(39,3,9) occ(55,3,5) occ(63,3,3) occ(81,3,2) occ(14,4,6) occ(25,4,5) occ(34,4,8) occ(49,4,9) occ(57,4,3) occ(67,4,2) occ(83,4,4) occ(10,5,7) occ(15,5,5) occ(26,5,9) occ(32,5,10) occ(36,5,6) occ(41,5,8) occ(73,5,2) occ(79,5,1) occ(8,6,9) occ(12,6,5) occ(28,6,7) occ(43,6,6) occ(47,6,10) occ(50,6,8) occ(62,6,2) occ(69,6,1) occ(75,6,4) occ(85,6,3) occ(13,7,6) occ(30,7,9) occ(38,7,7) occ(45,7,8) occ(48,7,10) occ(60,7,4) occ(70,7,5) occ(71,7,3) occ(77,7,2) occ(6,8,10) occ(9,8,3) occ(40,8,9) occ(46,8,8) occ(52,8,7) occ(58,8,6) occ(64,8,1) occ(74,8,4) occ(80,8,5) occ(86,8,2) occ(4,9,8) occ(5,9,2) occ(11,9,5) occ(44,9,10) occ(54,9,9) occ(68,9,4) occ(72,9,6) occ(78,9,7) occ(82,9,3) occ(7,10,4) occ(42,10,8) occ(56,10,7) occ(66,10,2) occ(76,10,5) occ(84,10,1)
Optimization: -87
Answer: 15
occ(1,5,4) occ(1,4,10) occ(1,4,7) occ(1,10,6) occ(1,5,3) occ(2,10,10) occ(3,7,1) coverage(93) occ(27,1,1) occ(41,1,2) occ(47,1,3) occ(50,1,7) occ(66,1,9) occ(72,1,6) occ(76,1,4) occ(89,1,8) occ(23,2,4) occ(29,2,3) occ(45,2,1) occ(48,2,9) occ(51,2,6) occ(60,2,5) occ(64,2,7) occ(70,2,8) occ(78,2,2) occ(91,2,10) occ(25,3,2) occ(39,3,1) occ(43,3,3) occ(46,3,7) occ(49,3,4) occ(52,3,6) occ(53,3,8) occ(68,3,10) occ(74,3,5) occ(87,3,9) occ(16,4,5) occ(21,4,3) occ(31,4,2) occ(44,4,9) occ(54,4,8) occ(58,4,4) occ(62,4,6) occ(80,4,1) occ(14,5,7) occ(19,5,1) occ(37,5,2) occ(55,5,9) occ(56,5,6) occ(77,5,8) occ(85,5,10) occ(86,5,5) occ(12,6,9) occ(17,6,3) occ(18,6,4) occ(33,6,1) occ(42,6,10) occ(57,6,7) occ(75,6,6) occ(82,6,2) occ(90,6,8) occ(15,7,5) occ(20,7,2) occ(35,7,3) occ(40,7,8) occ(79,7,7) occ(83,7,9) occ(84,7,4) occ(88,7,6) occ(92,7,10) occ(4,8,9) occ(5,8,3) occ(10,8,10) occ(13,8,7) occ(26,8,2) occ(32,8,1) occ(38,8,6) occ(59,8,8) occ(67,8,4) occ(73,8,5) occ(6,9,7) occ(7,9,5) occ(11,9,9) occ(22,9,1) occ(28,9,4) occ(34,9,3) occ(61,9,10) occ(65,9,6) occ(69,9,2) occ(81,9,8) occ(8,10,9) occ(9,10,7) occ(24,10,3) occ(30,10,2) occ(36,10,5) occ(63,10,8) occ(71,10,4)
Optimization: -93
Answer: 16
occ(1,5,4) occ(1,4,10) occ(1,4,7) occ(1,10,6) occ(1,5,3) occ(2,10,10) occ(3,7,1) coverage(94) occ(9,1,2) occ(56,1,8) occ(57,1,4) occ(62,1,7) occ(69,1,6) occ(82,1,1) occ(86,1,5) occ(87,1,3) occ(90,1,9) occ(11,2,4) occ(55,2,2) occ(60,2,9) occ(66,2,6) occ(71,2,8) occ(84,2,3) occ(85,2,5) occ(88,2,7) occ(89,2,1) occ(7,3,1) occ(13,3,6) occ(53,3,4) occ(54,3,9) occ(58,3,7) occ(59,3,3) occ(64,3,8) occ(67,3,5) occ(80,3,2) occ(92,3,10) occ(15,4,8) occ(51,4,6) occ(61,4,1) occ(65,4,3) occ(68,4,5) occ(73,4,9) occ(83,4,4) occ(91,4,2) occ(5,5,2) occ(19,5,9) occ(22,5,7) occ(49,5,8) occ(52,5,10) occ(74,5,5) occ(78,5,1) occ(81,5,6) occ(17,6,7) occ(20,6,9) occ(24,6,5) occ(47,6,6) occ(50,6,8) occ(63,6,2) occ(70,6,4) occ(75,6,10) occ(76,6,3) occ(93,6,1) occ(8,7,4) occ(21,7,8) occ(26,7,3) occ(29,7,2) occ(34,7,5) occ(42,7,9) occ(48,7,10) occ(72,7,6) occ(79,7,7) occ(6,8,6) occ(14,8,8) occ(18,8,10) occ(27,8,4) occ(28,8,1) occ(35,8,2) occ(41,8,3) occ(44,8,7) occ(45,8,5) occ(77,8,9) occ(4,9,8) occ(10,9,5) occ(23,9,7) occ(31,9,3) occ(32,9,4) occ(36,9,6) occ(39,9,1) occ(40,9,10) occ(46,9,9) occ(12,10,7) occ(16,10,9) occ(25,10,5) occ(30,10,2) occ(33,10,1) occ(37,10,3) occ(38,10,8) occ(43,10,4)
Optimization: -94
Answer: 17
occ(1,5,4) occ(1,4,10) occ(1,4,7) occ(1,10,6) occ(1,5,3) occ(2,10,10) occ(3,7,1) coverage(95) occ(12,1,8) occ(16,1,10) occ(39,1,5) occ(43,1,1) occ(62,1,7) occ(73,1,4) occ(81,1,2) occ(91,1,9) occ(94,1,3) occ(10,2,10) occ(18,2,8) occ(35,2,2) occ(41,2,3) occ(56,2,5) occ(60,2,9) occ(83,2,4) occ(87,2,6) occ(92,2,1) occ(93,2,7) occ(14,3,9) occ(20,3,10) occ(37,3,4) occ(45,3,2) occ(58,3,7) occ(64,3,6) occ(71,3,5) occ(75,3,3) occ(79,3,1) occ(89,3,8) occ(8,4,9) occ(33,4,1) occ(54,4,6) occ(69,4,3) occ(70,4,4) occ(74,4,8) occ(85,4,5) occ(90,4,2) occ(22,5,9) occ(34,5,5) occ(40,5,8) occ(47,5,1) occ(66,5,7) occ(72,5,6) occ(77,5,2) occ(6,6,10) occ(19,6,8) occ(31,6,2) occ(38,6,6) occ(49,6,3) occ(52,6,7) occ(67,6,4) occ(68,6,5) occ(76,6,9) occ(88,6,1) occ(17,7,10) occ(23,7,5) occ(24,7,8) occ(32,7,6) occ(36,7,4) occ(42,7,7) occ(50,7,9) occ(65,7,2) occ(86,7,3) occ(4,8,9) occ(9,8,5) occ(15,8,8) occ(21,8,7) occ(25,8,3) occ(29,8,1) occ(51,8,4) occ(59,8,2) occ(78,8,10) occ(82,8,6) occ(5,9,2) occ(11,9,7) occ(26,9,9) occ(30,9,5) occ(44,9,6) occ(48,9,10) occ(55,9,3) occ(63,9,1) occ(80,9,8) occ(84,9,4) occ(7,10,4) occ(13,10,9) occ(27,10,2) occ(28,10,7) occ(46,10,8) occ(53,10,5) occ(57,10,1) occ(61,10,3)
Optimization: -95
*** Info : (clingo): INTERRUPTED by signal!
SATISFIABLE

TIME LIMIT   : 1
Models       : 17+
  Optimum    : unknown
Optimization : -95
Calls        : 1
Time         : 300.000s (Solving: 298.53s 1st Model: 0.00s Unsat: 0.00s)
CPU Time     : 300.001s
